(set-info :smt-lib-version 2.6)
(set-info :category "crafted")
(set-logic QF_FF)
(define-sort FF0 () (_ FiniteField 52435875175126190479447740508185965837690552500527637822603658699938581184513))
(declare-fun return_n7_alt () FF0)
(declare-fun mul_n35_alt () FF0)
(declare-fun mul_n21_alt () FF0)
(declare-fun mul_n56_alt () FF0)
(declare-fun mul_n24_alt () FF0)
(declare-fun mul_n62_alt () FF0)
(declare-fun mul_n36_alt () FF0)
(declare-fun mul_n71_alt () FF0)
(declare-fun mul_n54_alt () FF0)
(declare-fun mul_n57_alt () FF0)
(declare-fun mul_n66_alt () FF0)
(declare-fun mul_n69_alt () FF0)
(declare-fun mul_n11_alt () FF0)
(declare-fun mul_n49_alt () FF0)
(declare-fun mul_n52_alt () FF0)
(declare-fun mul_n55_alt () FF0)
(declare-fun mul_n58_alt () FF0)
(declare-fun is_zero_inv_n72_alt () FF0)
(declare-fun mul_n70_alt () FF0)
(declare-fun mul_n41_alt () FF0)
(declare-fun h_n10_alt () FF0)
(declare-fun mul_n22_alt () FF0)
(declare-fun mul_n68_alt () FF0)
(declare-fun mul_n15_alt () FF0)
(declare-fun is_zero_n14_alt () FF0)
(declare-fun a_n0_alt () FF0)
(declare-fun mul_n25_alt () FF0)
(declare-fun mul_n67_alt () FF0)
(declare-fun mul_n17_alt () FF0)
(declare-fun mul_n18_alt () FF0)
(declare-fun mul_n26_alt () FF0)
(declare-fun f_n1_alt () FF0)
(declare-fun mul_n38_alt () FF0)
(declare-fun mul_n63_alt () FF0)
(declare-fun mul_n65_alt () FF0)
(declare-fun is_zero_n46_alt () FF0)
(declare-fun mul_n64_alt () FF0)
(declare-fun j_n3_alt () FF0)
(declare-fun mul_n59_alt () FF0)
(declare-fun mul_n47_alt () FF0)
(declare-fun mul_n61_alt () FF0)
(declare-fun mul_n60_alt () FF0)
(declare-fun b_n8_alt () FF0)
(declare-fun g_n9_alt () FF0)
(declare-fun mul_n12_alt () FF0)
(declare-fun mul_n53_alt () FF0)
(declare-fun c_n6_alt () FF0)
(declare-fun is_zero_n51_alt () FF0)
(declare-fun mul_n42_alt () FF0)
(declare-fun mul_n40_alt () FF0)
(declare-fun is_zero_inv_n50_alt () FF0)
(declare-fun mul_n37_alt () FF0)
(declare-fun mul_n48_alt () FF0)
(declare-fun mul_n44_alt () FF0)
(declare-fun is_zero_inv_n45_alt () FF0)
(declare-fun mul_n20_alt () FF0)
(declare-fun mul_n43_alt () FF0)
(declare-fun is_zero_n34_alt () FF0)
(declare-fun mul_n23_alt () FF0)
(declare-fun mul_n27_alt () FF0)
(declare-fun is_zero_n32_alt () FF0)
(declare-fun mul_n39_alt () FF0)
(declare-fun e_n2_alt () FF0)
(declare-fun i_n5_alt () FF0)
(declare-fun mul_n16_alt () FF0)
(declare-fun is_zero_inv_n33_alt () FF0)
(declare-fun mul_n28_alt () FF0)
(declare-fun is_zero_n30_alt () FF0)
(declare-fun d_n4_alt () FF0)
(declare-fun is_zero_inv_n31_alt () FF0)
(declare-fun is_zero_inv_n29_alt () FF0)
(declare-fun mul_n19_alt () FF0)
(declare-fun is_zero_inv_n13_alt () FF0)
(declare-fun return_n7 () FF0)
(declare-fun mul_n35 () FF0)
(declare-fun mul_n21 () FF0)
(declare-fun mul_n56 () FF0)
(declare-fun mul_n24 () FF0)
(declare-fun mul_n62 () FF0)
(declare-fun mul_n36 () FF0)
(declare-fun mul_n71 () FF0)
(declare-fun mul_n54 () FF0)
(declare-fun mul_n57 () FF0)
(declare-fun mul_n66 () FF0)
(declare-fun mul_n69 () FF0)
(declare-fun mul_n11 () FF0)
(declare-fun mul_n49 () FF0)
(declare-fun mul_n52 () FF0)
(declare-fun mul_n55 () FF0)
(declare-fun mul_n58 () FF0)
(declare-fun is_zero_inv_n72 () FF0)
(declare-fun mul_n70 () FF0)
(declare-fun mul_n41 () FF0)
(declare-fun h_n10 () FF0)
(declare-fun mul_n22 () FF0)
(declare-fun mul_n68 () FF0)
(declare-fun mul_n15 () FF0)
(declare-fun is_zero_n14 () FF0)
(declare-fun a_n0 () FF0)
(declare-fun mul_n25 () FF0)
(declare-fun mul_n67 () FF0)
(declare-fun mul_n17 () FF0)
(declare-fun mul_n18 () FF0)
(declare-fun mul_n26 () FF0)
(declare-fun f_n1 () FF0)
(declare-fun mul_n38 () FF0)
(declare-fun mul_n63 () FF0)
(declare-fun mul_n65 () FF0)
(declare-fun is_zero_n46 () FF0)
(declare-fun mul_n64 () FF0)
(declare-fun j_n3 () FF0)
(declare-fun mul_n59 () FF0)
(declare-fun mul_n47 () FF0)
(declare-fun mul_n61 () FF0)
(declare-fun mul_n60 () FF0)
(declare-fun b_n8 () FF0)
(declare-fun g_n9 () FF0)
(declare-fun mul_n12 () FF0)
(declare-fun mul_n53 () FF0)
(declare-fun c_n6 () FF0)
(declare-fun is_zero_n51 () FF0)
(declare-fun mul_n42 () FF0)
(declare-fun mul_n40 () FF0)
(declare-fun is_zero_inv_n50 () FF0)
(declare-fun mul_n37 () FF0)
(declare-fun mul_n48 () FF0)
(declare-fun mul_n44 () FF0)
(declare-fun is_zero_inv_n45 () FF0)
(declare-fun mul_n20 () FF0)
(declare-fun mul_n43 () FF0)
(declare-fun is_zero_n34 () FF0)
(declare-fun mul_n23 () FF0)
(declare-fun mul_n27 () FF0)
(declare-fun is_zero_n32 () FF0)
(declare-fun mul_n39 () FF0)
(declare-fun e_n2 () FF0)
(declare-fun i_n5 () FF0)
(declare-fun mul_n16 () FF0)
(declare-fun is_zero_inv_n33 () FF0)
(declare-fun mul_n28 () FF0)
(declare-fun is_zero_n30 () FF0)
(declare-fun d_n4 () FF0)
(declare-fun is_zero_inv_n31 () FF0)
(declare-fun is_zero_inv_n29 () FF0)
(declare-fun mul_n19 () FF0)
(declare-fun is_zero_inv_n13 () FF0)
(assert 
  (let ((let0 return_n7_alt))
  (let ((let1 (as ff4 FF0)))
  (let ((let2 mul_n35_alt))
  (let ((let3 (as ff52435875175126190479447740508185965837690552500527637822603658699938581184512 FF0)))
  (let ((let4 mul_n21_alt))
  (let ((let5 (ff.mul let4 let3)))
  (let ((let6 mul_n56_alt))
  (let ((let7 (ff.mul let6 let3)))
  (let ((let8 mul_n24_alt))
  (let ((let9 mul_n62_alt))
  (let ((let10 (ff.mul let9 let3)))
  (let ((let11 mul_n36_alt))
  (let ((let12 mul_n71_alt))
  (let ((let13 mul_n54_alt))
  (let ((let14 mul_n57_alt))
  (let ((let15 (ff.mul let14 let3)))
  (let ((let16 mul_n66_alt))
  (let ((let17 mul_n69_alt))
  (let ((let18 mul_n11_alt))
  (let ((let19 mul_n49_alt))
  (let ((let20 (ff.mul let19 let3)))
  (let ((let21 mul_n52_alt))
  (let ((let22 (ff.mul let21 let3)))
  (let ((let23 mul_n55_alt))
  (let ((let24 (ff.mul let23 let3)))
  (let ((let25 mul_n58_alt))
  (let ((let26 (ff.add let25 let24 let22 let20 let18 let17 let16 let15 let13 let12 let11 let10 let8 let7 let5 let2 let1)))
  (let ((let27 is_zero_inv_n72_alt))
  (let ((let28 (ff.mul let27 let26)))
  (let ((let29 (= let28 let0)))
  (let ((let30 mul_n70_alt))
  (let ((let31 (as ff1 FF0)))
  (let ((let32 mul_n41_alt))
  (let ((let33 (ff.mul let32 let3)))
  (let ((let34 (ff.add let33 let31)))
  (let ((let35 (ff.mul let34 let30)))
  (let ((let36 (= let35 let12)))
  (let ((let37 h_n10_alt))
  (let ((let38 (ff.mul let37 let3)))
  (let ((let39 (ff.add let38 let31)))
  (let ((let40 (as ff2 FF0)))
  (let ((let41 (ff.mul let37 let40)))
  (let ((let42 (ff.mul let41 let39)))
  (let ((let43 (= let42 let30)))
  (let ((let44 (ff.mul let2 let3)))
  (let ((let45 mul_n22_alt))
  (let ((let46 (ff.mul let45 let3)))
  (let ((let47 (ff.mul let11 let3)))
  (let ((let48 mul_n68_alt))
  (let ((let49 (ff.add let48 let47 let46 let44 let31)))
  (let ((let50 mul_n15_alt))
  (let ((let51 is_zero_n14_alt))
  (let ((let52 a_n0_alt))
  (let ((let53 (ff.mul let52 let3)))
  (let ((let54 (ff.add let53 let51 let50)))
  (let ((let55 (ff.mul let54 let49)))
  (let ((let56 (= let55 let17)))
  (let ((let57 mul_n25_alt))
  (let ((let58 mul_n67_alt))
  (let ((let59 (ff.mul let58 let57)))
  (let ((let60 (= let59 let48)))
  (let ((let61 mul_n17_alt))
  (let ((let62 (ff.mul let57 let3)))
  (let ((let63 mul_n18_alt))
  (let ((let64 (ff.mul let63 let3)))
  (let ((let65 mul_n26_alt))
  (let ((let66 (ff.add let65 let64 let62 let61)))
  (let ((let67 f_n1_alt))
  (let ((let68 (ff.mul let67 let3)))
  (let ((let69 (ff.add let68 let31)))
  (let ((let70 (ff.mul let69 let66)))
  (let ((let71 (= let70 let58)))
  (let ((let72 mul_n38_alt))
  (let ((let73 (ff.mul let72 let3)))
  (let ((let74 mul_n63_alt))
  (let ((let75 (ff.mul let18 let3)))
  (let ((let76 (ff.add let53 let51 let75 let8 let74 let50 let57 let73 let3)))
  (let ((let77 mul_n65_alt))
  (let ((let78 (ff.mul let77 let76)))
  (let ((let79 (= let78 let16)))
  (let ((let80 is_zero_n46_alt))
  (let ((let81 mul_n64_alt))
  (let ((let82 (ff.mul let81 let3)))
  (let ((let83 (ff.add let82 let31)))
  (let ((let84 (ff.mul let83 let80)))
  (let ((let85 (= let84 let77)))
  (let ((let86 j_n3_alt))
  (let ((let87 (ff.add let46 let31)))
  (let ((let88 (ff.mul let87 let86)))
  (let ((let89 (= let88 let81)))
  (let ((let90 (ff.mul let8 let3)))
  (let ((let91 (ff.add let90 let31)))
  (let ((let92 (as ff52435875175126190479447740508185965837690552500527637822603658699938581184511 FF0)))
  (let ((let93 (ff.mul let51 let92)))
  (let ((let94 (ff.mul let72 let40)))
  (let ((let95 (ff.mul let57 let92)))
  (let ((let96 (ff.mul let50 let92)))
  (let ((let97 (ff.mul let52 let40)))
  (let ((let98 (ff.add let97 let96 let95 let94 let93 let40)))
  (let ((let99 (ff.mul let98 let91)))
  (let ((let100 (= let99 let74)))
  (let ((let101 (ff.mul let86 let3)))
  (let ((let102 mul_n59_alt))
  (let ((let103 (ff.mul let102 let3)))
  (let ((let104 mul_n47_alt))
  (let ((let105 (ff.mul let104 let3)))
  (let ((let106 (ff.add let105 let103 let101 let40)))
  (let ((let107 mul_n61_alt))
  (let ((let108 (ff.mul let107 let106)))
  (let ((let109 (= let108 let9)))
  (let ((let110 mul_n60_alt))
  (let ((let111 (ff.add let5 let31)))
  (let ((let112 (ff.mul let111 let110)))
  (let ((let113 (= let112 let107)))
  (let ((let114 b_n8_alt))
  (let ((let115 g_n9_alt))
  (let ((let116 (ff.mul let115 let114)))
  (let ((let117 (= let116 let110)))
  (let ((let118 (ff.add let105 let31)))
  (let ((let119 (ff.mul let86 let92)))
  (let ((let120 (ff.add let119 let40)))
  (let ((let121 (ff.mul let120 let118)))
  (let ((let122 (= let121 let102)))
  (let ((let123 (ff.add let6 let4 let45 let3)))
  (let ((let124 (ff.mul let14 let40)))
  (let ((let125 (ff.mul let8 let92)))
  (let ((let126 (ff.add let125 let124 let40)))
  (let ((let127 (ff.mul let126 let123)))
  (let ((let128 (= let127 let25)))
  (let ((let129 (ff.add let8 let86 let3)))
  (let ((let130 mul_n12_alt))
  (let ((let131 (ff.add let130 let68 let75 let31)))
  (let ((let132 (ff.mul let131 let129)))
  (let ((let133 (= let132 let14)))
  (let ((let134 (ff.mul let4 let92)))
  (let ((let135 (ff.add let134 let40)))
  (let ((let136 (ff.mul let135 let87)))
  (let ((let137 (= let136 let6)))
  (let ((let138 (ff.mul let115 let21)))
  (let ((let139 (= let138 let23)))
  (let ((let140 (ff.mul let51 let3)))
  (let ((let141 (ff.add let21 let140)))
  (let ((let142 mul_n53_alt))
  (let ((let143 (ff.mul let142 let3)))
  (let ((let144 (ff.add let143 let31)))
  (let ((let145 (ff.mul let144 let141)))
  (let ((let146 (= let145 let13)))
  (let ((let147 c_n6_alt))
  (let ((let148 (ff.mul let147 let3)))
  (let ((let149 (ff.add let148 let31)))
  (let ((let150 (ff.mul let61 let3)))
  (let ((let151 (ff.add let150 let31)))
  (let ((let152 (ff.mul let151 let149)))
  (let ((let153 (= let152 let142)))
  (let ((let154 (ff.add let47 let46 let44 let40)))
  (let ((let155 is_zero_n51_alt))
  (let ((let156 (ff.mul let155 let154)))
  (let ((let157 (= let156 let21)))
  (let ((let158 (as ff0 FF0)))
  (let ((let159 mul_n42_alt))
  (let ((let160 (ff.mul let159 let3)))
  (let ((let161 mul_n40_alt))
  (let ((let162 (ff.add let161 let53 let37 let160 let61 let147 let2 let31)))
  (let ((let163 (ff.mul let155 let162)))
  (let ((let164 (= let163 let158)))
  (let ((let165 (ff.mul let155 let3)))
  (let ((let166 (ff.add let165 let31)))
  (let ((let167 is_zero_inv_n50_alt))
  (let ((let168 (ff.mul let167 let162)))
  (let ((let169 (= let168 let166)))
  (let ((let170 mul_n37_alt))
  (let ((let171 (ff.mul let170 let3)))
  (let ((let172 (ff.add let171 let63 let11 let150 let45 let2)))
  (let ((let173 mul_n48_alt))
  (let ((let174 (ff.add let173 let101 let104)))
  (let ((let175 (ff.mul let174 let172)))
  (let ((let176 (= let175 let19)))
  (let ((let177 (ff.mul let104 let92)))
  (let ((let178 (ff.add let177 let40)))
  (let ((let179 (ff.mul let178 let86)))
  (let ((let180 (= let179 let173)))
  (let ((let181 (ff.add let160 let147)))
  (let ((let182 (ff.mul let80 let3)))
  (let ((let183 (ff.add let182 let31)))
  (let ((let184 (ff.mul let183 let181)))
  (let ((let185 (= let184 let104)))
  (let ((let186 mul_n44_alt))
  (let ((let187 (ff.add let65 let61 let18 let64 let186 let62 let148 let44 let40)))
  (let ((let188 (ff.mul let80 let187)))
  (let ((let189 (= let188 let158)))
  (let ((let190 is_zero_inv_n45_alt))
  (let ((let191 (ff.mul let190 let187)))
  (let ((let192 (= let191 let183)))
  (let ((let193 mul_n20_alt))
  (let ((let194 (ff.mul let193 let3)))
  (let ((let195 (ff.add let194 let31)))
  (let ((let196 mul_n43_alt))
  (let ((let197 (ff.mul let196 let195)))
  (let ((let198 (= let197 let186)))
  (let ((let199 (ff.mul let69 let114)))
  (let ((let200 (= let199 let196)))
  (let ((let201 (ff.mul let161 let3)))
  (let ((let202 (ff.add let201 let147)))
  (let ((let203 (ff.mul let34 let202)))
  (let ((let204 (= let203 let159)))
  (let ((let205 is_zero_n34_alt))
  (let ((let206 mul_n23_alt))
  (let ((let207 (ff.mul let206 let3)))
  (let ((let208 mul_n27_alt))
  (let ((let209 (ff.mul let208 let3)))
  (let ((let210 (ff.add let90 let209 let207 let40)))
  (let ((let211 (ff.mul let210 let205)))
  (let ((let212 (= let211 let32)))
  (let ((let213 is_zero_n32_alt))
  (let ((let214 (ff.mul let213 let3)))
  (let ((let215 (ff.add let214 let31)))
  (let ((let216 mul_n39_alt))
  (let ((let217 (ff.mul let216 let215)))
  (let ((let218 (= let217 let161)))
  (let ((let219 (ff.add let53 let50 let57 let73 let51)))
  (let ((let220 (ff.mul let51 let219)))
  (let ((let221 (= let220 let216)))
  (let ((let222 (ff.mul let57 let40)))
  (let ((let223 (ff.mul let222 let54)))
  (let ((let224 (= let223 let72)))
  (let ((let225 (ff.add let150 let63 let31)))
  (let ((let226 (ff.mul let2 let40)))
  (let ((let227 (ff.mul let45 let40)))
  (let ((let228 (ff.mul let11 let40)))
  (let ((let229 (ff.add let228 let227 let226 let92)))
  (let ((let230 (ff.mul let229 let225)))
  (let ((let231 (= let230 let170)))
  (let ((let232 (ff.add let44 let31)))
  (let ((let233 (ff.mul let45 let92)))
  (let ((let234 (ff.add let233 let40)))
  (let ((let235 (ff.mul let234 let232)))
  (let ((let236 (= let235 let11)))
  (let ((let237 (ff.mul let131 let205)))
  (let ((let238 (= let237 let2)))
  (let ((let239 (as ff3 FF0)))
  (let ((let240 (ff.mul let115 let3)))
  (let ((let241 e_n2_alt))
  (let ((let242 i_n5_alt))
  (let ((let243 mul_n16_alt))
  (let ((let244 (ff.add let213 let243 let194 let68 let75 let242 let241 let130 let240 let239)))
  (let ((let245 (ff.mul let205 let244)))
  (let ((let246 (= let245 let158)))
  (let ((let247 (ff.mul let205 let3)))
  (let ((let248 (ff.add let247 let31)))
  (let ((let249 is_zero_inv_n33_alt))
  (let ((let250 (ff.mul let249 let244)))
  (let ((let251 (= let250 let248)))
  (let ((let252 (as ff5 FF0)))
  (let ((let253 mul_n28_alt))
  (let ((let254 (ff.mul let253 let3)))
  (let ((let255 is_zero_n30_alt))
  (let ((let256 (ff.mul let255 let40)))
  (let ((let257 d_n4_alt))
  (let ((let258 (ff.mul let257 let3)))
  (let ((let259 (ff.mul let65 let3)))
  (let ((let260 (ff.add let259 let206 let258 let150 let256 let4 let63 let254 let240 let57 let252)))
  (let ((let261 (ff.mul let213 let260)))
  (let ((let262 (= let261 let158)))
  (let ((let263 is_zero_inv_n31_alt))
  (let ((let264 (ff.mul let263 let260)))
  (let ((let265 (= let264 let215)))
  (let ((let266 (ff.mul let67 let92)))
  (let ((let267 (ff.add let243 let206 let150 let266 let208 let8 let75 let63 let4 let253 let130 let40)))
  (let ((let268 (ff.mul let255 let267)))
  (let ((let269 (= let268 let158)))
  (let ((let270 (ff.mul let255 let3)))
  (let ((let271 (ff.add let270 let31)))
  (let ((let272 is_zero_inv_n29_alt))
  (let ((let273 (ff.mul let272 let267)))
  (let ((let274 (= let273 let271)))
  (let ((let275 (ff.add let140 let31)))
  (let ((let276 (ff.mul let275 let52)))
  (let ((let277 (= let276 let253)))
  (let ((let278 (ff.add let207 let31)))
  (let ((let279 (ff.add let125 let40)))
  (let ((let280 (ff.mul let279 let278)))
  (let ((let281 (= let280 let208)))
  (let ((let282 (ff.mul let222 let225)))
  (let ((let283 (= let282 let65)))
  (let ((let284 (ff.mul let114 let3)))
  (let ((let285 (ff.add let284 let31)))
  (let ((let286 (ff.mul let91 let285)))
  (let ((let287 (= let286 let57)))
  (let ((let288 (ff.mul let285 let206)))
  (let ((let289 (= let288 let8)))
  (let ((let290 (ff.mul let241 let3)))
  (let ((let291 (ff.add let290 let31)))
  (let ((let292 (ff.mul let4 let291)))
  (let ((let293 (= let292 let206)))
  (let ((let294 (ff.mul let130 let3)))
  (let ((let295 (ff.add let294 let67 let18)))
  (let ((let296 (ff.mul let18 let295)))
  (let ((let297 (= let296 let45)))
  (let ((let298 (ff.add let101 let31)))
  (let ((let299 (ff.mul let257 let298)))
  (let ((let300 (= let299 let4)))
  (let ((let301 (ff.mul let50 let3)))
  (let ((let302 (ff.add let52 let140 let301 let31)))
  (let ((let303 mul_n19_alt))
  (let ((let304 (ff.mul let303 let302)))
  (let ((let305 (= let304 let193)))
  (let ((let306 (ff.add let240 let31)))
  (let ((let307 (ff.mul let306 let306)))
  (let ((let308 (= let307 let303)))
  (let ((let309 (ff.add let61 let241 let3)))
  (let ((let310 (ff.mul let39 let309)))
  (let ((let311 (= let310 let63)))
  (let ((let312 (ff.mul let243 let3)))
  (let ((let313 (ff.add let312 let294 let67 let18)))
  (let ((let314 (ff.mul let69 let313)))
  (let ((let315 (= let314 let61)))
  (let ((let316 (ff.add let53 let50 let294 let67 let51 let18 let3)))
  (let ((let317 (ff.mul let242 let316)))
  (let ((let318 (= let317 let243)))
  (let ((let319 (ff.mul let97 let275)))
  (let ((let320 (= let319 let50)))
  (let ((let321 (ff.mul let147 let40)))
  (let ((let322 (ff.add let52 let242 let241 let257 let321)))
  (let ((let323 (ff.mul let51 let322)))
  (let ((let324 (= let323 let158)))
  (let ((let325 is_zero_inv_n13_alt))
  (let ((let326 (ff.mul let325 let322)))
  (let ((let327 (= let326 let275)))
  (let ((let328 (ff.mul let18 let40)))
  (let ((let329 (ff.mul let328 let67)))
  (let ((let330 (= let329 let130)))
  (let ((let331 (ff.mul let37 let114)))
  (let ((let332 (= let331 let18)))
  (let ((let333 (and let332 let330 let327 let324 let320 let318 let315 let311 let308 let305 let300 let297 let293 let289 let287 let283 let281 let277 let274 let269 let265 let262 let251 let246 let238 let236 let231 let224 let221 let218 let212 let204 let200 let198 let192 let189 let185 let180 let176 let169 let164 let157 let153 let146 let139 let137 let133 let128 let122 let117 let113 let109 let100 let89 let85 let79 let71 let60 let56 let43 let36 let29)))
  (let ((let334 return_n7))
  (let ((let335 mul_n35))
  (let ((let336 mul_n21))
  (let ((let337 (ff.mul let336 let3)))
  (let ((let338 mul_n56))
  (let ((let339 (ff.mul let338 let3)))
  (let ((let340 mul_n24))
  (let ((let341 mul_n62))
  (let ((let342 (ff.mul let341 let3)))
  (let ((let343 mul_n36))
  (let ((let344 mul_n71))
  (let ((let345 mul_n54))
  (let ((let346 mul_n57))
  (let ((let347 (ff.mul let346 let3)))
  (let ((let348 mul_n66))
  (let ((let349 mul_n69))
  (let ((let350 mul_n11))
  (let ((let351 mul_n49))
  (let ((let352 (ff.mul let351 let3)))
  (let ((let353 mul_n52))
  (let ((let354 (ff.mul let353 let3)))
  (let ((let355 mul_n55))
  (let ((let356 (ff.mul let355 let3)))
  (let ((let357 mul_n58))
  (let ((let358 (ff.add let357 let356 let354 let352 let350 let349 let348 let347 let345 let344 let343 let342 let340 let339 let337 let335 let1)))
  (let ((let359 is_zero_inv_n72))
  (let ((let360 (ff.mul let359 let358)))
  (let ((let361 (= let360 let334)))
  (let ((let362 mul_n70))
  (let ((let363 mul_n41))
  (let ((let364 (ff.mul let363 let3)))
  (let ((let365 (ff.add let364 let31)))
  (let ((let366 (ff.mul let365 let362)))
  (let ((let367 (= let366 let344)))
  (let ((let368 h_n10))
  (let ((let369 (ff.mul let368 let3)))
  (let ((let370 (ff.add let369 let31)))
  (let ((let371 (ff.mul let368 let40)))
  (let ((let372 (ff.mul let371 let370)))
  (let ((let373 (= let372 let362)))
  (let ((let374 (ff.mul let335 let3)))
  (let ((let375 mul_n22))
  (let ((let376 (ff.mul let375 let3)))
  (let ((let377 (ff.mul let343 let3)))
  (let ((let378 mul_n68))
  (let ((let379 (ff.add let378 let377 let376 let374 let31)))
  (let ((let380 mul_n15))
  (let ((let381 is_zero_n14))
  (let ((let382 a_n0))
  (let ((let383 (ff.mul let382 let3)))
  (let ((let384 (ff.add let383 let381 let380)))
  (let ((let385 (ff.mul let384 let379)))
  (let ((let386 (= let385 let349)))
  (let ((let387 mul_n25))
  (let ((let388 mul_n67))
  (let ((let389 (ff.mul let388 let387)))
  (let ((let390 (= let389 let378)))
  (let ((let391 mul_n17))
  (let ((let392 (ff.mul let387 let3)))
  (let ((let393 mul_n18))
  (let ((let394 (ff.mul let393 let3)))
  (let ((let395 mul_n26))
  (let ((let396 (ff.add let395 let394 let392 let391)))
  (let ((let397 f_n1))
  (let ((let398 (ff.mul let397 let3)))
  (let ((let399 (ff.add let398 let31)))
  (let ((let400 (ff.mul let399 let396)))
  (let ((let401 (= let400 let388)))
  (let ((let402 mul_n38))
  (let ((let403 (ff.mul let402 let3)))
  (let ((let404 mul_n63))
  (let ((let405 (ff.mul let350 let3)))
  (let ((let406 (ff.add let383 let381 let405 let340 let404 let380 let387 let403 let3)))
  (let ((let407 mul_n65))
  (let ((let408 (ff.mul let407 let406)))
  (let ((let409 (= let408 let348)))
  (let ((let410 is_zero_n46))
  (let ((let411 mul_n64))
  (let ((let412 (ff.mul let411 let3)))
  (let ((let413 (ff.add let412 let31)))
  (let ((let414 (ff.mul let413 let410)))
  (let ((let415 (= let414 let407)))
  (let ((let416 j_n3))
  (let ((let417 (ff.add let376 let31)))
  (let ((let418 (ff.mul let417 let416)))
  (let ((let419 (= let418 let411)))
  (let ((let420 (ff.mul let340 let3)))
  (let ((let421 (ff.add let420 let31)))
  (let ((let422 (ff.mul let381 let92)))
  (let ((let423 (ff.mul let402 let40)))
  (let ((let424 (ff.mul let387 let92)))
  (let ((let425 (ff.mul let380 let92)))
  (let ((let426 (ff.mul let382 let40)))
  (let ((let427 (ff.add let426 let425 let424 let423 let422 let40)))
  (let ((let428 (ff.mul let427 let421)))
  (let ((let429 (= let428 let404)))
  (let ((let430 (ff.mul let416 let3)))
  (let ((let431 mul_n59))
  (let ((let432 (ff.mul let431 let3)))
  (let ((let433 mul_n47))
  (let ((let434 (ff.mul let433 let3)))
  (let ((let435 (ff.add let434 let432 let430 let40)))
  (let ((let436 mul_n61))
  (let ((let437 (ff.mul let436 let435)))
  (let ((let438 (= let437 let341)))
  (let ((let439 mul_n60))
  (let ((let440 (ff.add let337 let31)))
  (let ((let441 (ff.mul let440 let439)))
  (let ((let442 (= let441 let436)))
  (let ((let443 b_n8))
  (let ((let444 g_n9))
  (let ((let445 (ff.mul let444 let443)))
  (let ((let446 (= let445 let439)))
  (let ((let447 (ff.add let434 let31)))
  (let ((let448 (ff.mul let416 let92)))
  (let ((let449 (ff.add let448 let40)))
  (let ((let450 (ff.mul let449 let447)))
  (let ((let451 (= let450 let431)))
  (let ((let452 (ff.add let338 let336 let375 let3)))
  (let ((let453 (ff.mul let346 let40)))
  (let ((let454 (ff.mul let340 let92)))
  (let ((let455 (ff.add let454 let453 let40)))
  (let ((let456 (ff.mul let455 let452)))
  (let ((let457 (= let456 let357)))
  (let ((let458 (ff.add let340 let416 let3)))
  (let ((let459 mul_n12))
  (let ((let460 (ff.add let459 let398 let405 let31)))
  (let ((let461 (ff.mul let460 let458)))
  (let ((let462 (= let461 let346)))
  (let ((let463 (ff.mul let336 let92)))
  (let ((let464 (ff.add let463 let40)))
  (let ((let465 (ff.mul let464 let417)))
  (let ((let466 (= let465 let338)))
  (let ((let467 (ff.mul let444 let353)))
  (let ((let468 (= let467 let355)))
  (let ((let469 (ff.mul let381 let3)))
  (let ((let470 (ff.add let353 let469)))
  (let ((let471 mul_n53))
  (let ((let472 (ff.mul let471 let3)))
  (let ((let473 (ff.add let472 let31)))
  (let ((let474 (ff.mul let473 let470)))
  (let ((let475 (= let474 let345)))
  (let ((let476 c_n6))
  (let ((let477 (ff.mul let476 let3)))
  (let ((let478 (ff.add let477 let31)))
  (let ((let479 (ff.mul let391 let3)))
  (let ((let480 (ff.add let479 let31)))
  (let ((let481 (ff.mul let480 let478)))
  (let ((let482 (= let481 let471)))
  (let ((let483 (ff.add let377 let376 let374 let40)))
  (let ((let484 is_zero_n51))
  (let ((let485 (ff.mul let484 let483)))
  (let ((let486 (= let485 let353)))
  (let ((let487 mul_n42))
  (let ((let488 (ff.mul let487 let3)))
  (let ((let489 mul_n40))
  (let ((let490 (ff.add let489 let383 let368 let488 let391 let476 let335 let31)))
  (let ((let491 (ff.mul let484 let490)))
  (let ((let492 (= let491 let158)))
  (let ((let493 (ff.mul let484 let3)))
  (let ((let494 (ff.add let493 let31)))
  (let ((let495 is_zero_inv_n50))
  (let ((let496 (ff.mul let495 let490)))
  (let ((let497 (= let496 let494)))
  (let ((let498 mul_n37))
  (let ((let499 (ff.mul let498 let3)))
  (let ((let500 (ff.add let499 let393 let343 let479 let375 let335)))
  (let ((let501 mul_n48))
  (let ((let502 (ff.add let501 let430 let433)))
  (let ((let503 (ff.mul let502 let500)))
  (let ((let504 (= let503 let351)))
  (let ((let505 (ff.mul let433 let92)))
  (let ((let506 (ff.add let505 let40)))
  (let ((let507 (ff.mul let506 let416)))
  (let ((let508 (= let507 let501)))
  (let ((let509 (ff.add let488 let476)))
  (let ((let510 (ff.mul let410 let3)))
  (let ((let511 (ff.add let510 let31)))
  (let ((let512 (ff.mul let511 let509)))
  (let ((let513 (= let512 let433)))
  (let ((let514 mul_n44))
  (let ((let515 (ff.add let395 let391 let350 let394 let514 let392 let477 let374 let40)))
  (let ((let516 (ff.mul let410 let515)))
  (let ((let517 (= let516 let158)))
  (let ((let518 is_zero_inv_n45))
  (let ((let519 (ff.mul let518 let515)))
  (let ((let520 (= let519 let511)))
  (let ((let521 mul_n20))
  (let ((let522 (ff.mul let521 let3)))
  (let ((let523 (ff.add let522 let31)))
  (let ((let524 mul_n43))
  (let ((let525 (ff.mul let524 let523)))
  (let ((let526 (= let525 let514)))
  (let ((let527 (ff.mul let399 let443)))
  (let ((let528 (= let527 let524)))
  (let ((let529 (ff.mul let489 let3)))
  (let ((let530 (ff.add let529 let476)))
  (let ((let531 (ff.mul let365 let530)))
  (let ((let532 (= let531 let487)))
  (let ((let533 is_zero_n34))
  (let ((let534 mul_n23))
  (let ((let535 (ff.mul let534 let3)))
  (let ((let536 mul_n27))
  (let ((let537 (ff.mul let536 let3)))
  (let ((let538 (ff.add let420 let537 let535 let40)))
  (let ((let539 (ff.mul let538 let533)))
  (let ((let540 (= let539 let363)))
  (let ((let541 is_zero_n32))
  (let ((let542 (ff.mul let541 let3)))
  (let ((let543 (ff.add let542 let31)))
  (let ((let544 mul_n39))
  (let ((let545 (ff.mul let544 let543)))
  (let ((let546 (= let545 let489)))
  (let ((let547 (ff.add let383 let380 let387 let403 let381)))
  (let ((let548 (ff.mul let381 let547)))
  (let ((let549 (= let548 let544)))
  (let ((let550 (ff.mul let387 let40)))
  (let ((let551 (ff.mul let550 let384)))
  (let ((let552 (= let551 let402)))
  (let ((let553 (ff.add let479 let393 let31)))
  (let ((let554 (ff.mul let335 let40)))
  (let ((let555 (ff.mul let375 let40)))
  (let ((let556 (ff.mul let343 let40)))
  (let ((let557 (ff.add let556 let555 let554 let92)))
  (let ((let558 (ff.mul let557 let553)))
  (let ((let559 (= let558 let498)))
  (let ((let560 (ff.add let374 let31)))
  (let ((let561 (ff.mul let375 let92)))
  (let ((let562 (ff.add let561 let40)))
  (let ((let563 (ff.mul let562 let560)))
  (let ((let564 (= let563 let343)))
  (let ((let565 (ff.mul let460 let533)))
  (let ((let566 (= let565 let335)))
  (let ((let567 (ff.mul let444 let3)))
  (let ((let568 e_n2))
  (let ((let569 i_n5))
  (let ((let570 mul_n16))
  (let ((let571 (ff.add let541 let570 let522 let398 let405 let569 let568 let459 let567 let239)))
  (let ((let572 (ff.mul let533 let571)))
  (let ((let573 (= let572 let158)))
  (let ((let574 (ff.mul let533 let3)))
  (let ((let575 (ff.add let574 let31)))
  (let ((let576 is_zero_inv_n33))
  (let ((let577 (ff.mul let576 let571)))
  (let ((let578 (= let577 let575)))
  (let ((let579 mul_n28))
  (let ((let580 (ff.mul let579 let3)))
  (let ((let581 is_zero_n30))
  (let ((let582 (ff.mul let581 let40)))
  (let ((let583 d_n4))
  (let ((let584 (ff.mul let583 let3)))
  (let ((let585 (ff.mul let395 let3)))
  (let ((let586 (ff.add let585 let534 let584 let479 let582 let336 let393 let580 let567 let387 let252)))
  (let ((let587 (ff.mul let541 let586)))
  (let ((let588 (= let587 let158)))
  (let ((let589 is_zero_inv_n31))
  (let ((let590 (ff.mul let589 let586)))
  (let ((let591 (= let590 let543)))
  (let ((let592 (ff.mul let397 let92)))
  (let ((let593 (ff.add let570 let534 let479 let592 let536 let340 let405 let393 let336 let579 let459 let40)))
  (let ((let594 (ff.mul let581 let593)))
  (let ((let595 (= let594 let158)))
  (let ((let596 (ff.mul let581 let3)))
  (let ((let597 (ff.add let596 let31)))
  (let ((let598 is_zero_inv_n29))
  (let ((let599 (ff.mul let598 let593)))
  (let ((let600 (= let599 let597)))
  (let ((let601 (ff.add let469 let31)))
  (let ((let602 (ff.mul let601 let382)))
  (let ((let603 (= let602 let579)))
  (let ((let604 (ff.add let535 let31)))
  (let ((let605 (ff.add let454 let40)))
  (let ((let606 (ff.mul let605 let604)))
  (let ((let607 (= let606 let536)))
  (let ((let608 (ff.mul let550 let553)))
  (let ((let609 (= let608 let395)))
  (let ((let610 (ff.mul let443 let3)))
  (let ((let611 (ff.add let610 let31)))
  (let ((let612 (ff.mul let421 let611)))
  (let ((let613 (= let612 let387)))
  (let ((let614 (ff.mul let611 let534)))
  (let ((let615 (= let614 let340)))
  (let ((let616 (ff.mul let568 let3)))
  (let ((let617 (ff.add let616 let31)))
  (let ((let618 (ff.mul let336 let617)))
  (let ((let619 (= let618 let534)))
  (let ((let620 (ff.mul let459 let3)))
  (let ((let621 (ff.add let620 let397 let350)))
  (let ((let622 (ff.mul let350 let621)))
  (let ((let623 (= let622 let375)))
  (let ((let624 (ff.add let430 let31)))
  (let ((let625 (ff.mul let583 let624)))
  (let ((let626 (= let625 let336)))
  (let ((let627 (ff.mul let380 let3)))
  (let ((let628 (ff.add let382 let469 let627 let31)))
  (let ((let629 mul_n19))
  (let ((let630 (ff.mul let629 let628)))
  (let ((let631 (= let630 let521)))
  (let ((let632 (ff.add let567 let31)))
  (let ((let633 (ff.mul let632 let632)))
  (let ((let634 (= let633 let629)))
  (let ((let635 (ff.add let391 let568 let3)))
  (let ((let636 (ff.mul let370 let635)))
  (let ((let637 (= let636 let393)))
  (let ((let638 (ff.mul let570 let3)))
  (let ((let639 (ff.add let638 let620 let397 let350)))
  (let ((let640 (ff.mul let399 let639)))
  (let ((let641 (= let640 let391)))
  (let ((let642 (ff.add let383 let380 let620 let397 let381 let350 let3)))
  (let ((let643 (ff.mul let569 let642)))
  (let ((let644 (= let643 let570)))
  (let ((let645 (ff.mul let426 let601)))
  (let ((let646 (= let645 let380)))
  (let ((let647 (ff.mul let476 let40)))
  (let ((let648 (ff.add let382 let569 let568 let583 let647)))
  (let ((let649 (ff.mul let381 let648)))
  (let ((let650 (= let649 let158)))
  (let ((let651 is_zero_inv_n13))
  (let ((let652 (ff.mul let651 let648)))
  (let ((let653 (= let652 let601)))
  (let ((let654 (ff.mul let350 let40)))
  (let ((let655 (ff.mul let654 let397)))
  (let ((let656 (= let655 let459)))
  (let ((let657 (ff.mul let368 let443)))
  (let ((let658 (= let657 let350)))
  (let ((let659 (and let658 let656 let653 let650 let646 let644 let641 let637 let634 let631 let626 let623 let619 let615 let613 let609 let607 let603 let600 let595 let591 let588 let578 let573 let566 let564 let559 let552 let549 let546 let540 let532 let528 let526 let520 let517 let513 let508 let504 let497 let492 let486 let482 let475 let468 let466 let462 let457 let451 let446 let442 let438 let429 let419 let415 let409 let401 let390 let386 let373 let367 let361)))
  (let ((let660 (= let334 let0)))
  (let ((let661 (not let660)))
  (let ((let662 (= let476 let147)))
  (let ((let663 (= let568 let241)))
  (let ((let664 (= let397 let67)))
  (let ((let665 (= let368 let37)))
  (let ((let666 (= let444 let115)))
  (let ((let667 (= let416 let86)))
  (let ((let668 (= let569 let242)))
  (let ((let669 (= let382 let52)))
  (let ((let670 (= let583 let257)))
  (let ((let671 (= let443 let114)))
  (let ((let672 (and let671 let670 let669 let668 let667 let666 let665 let664 let663 let662)))
  (let ((let673 (and let672 let661 let659 let333)))
  let673
))))))))))))))))))))))))))))))))))))))))))))))))))))))))))))))))))))))))))))))))))))))))))))))))))))))))))))))))))))))))))))))))))))))))))))))))))))))))))))))))))))))))))))))))))))))))))))))))))))))))))))))))))))))))))))))))))))))))))))))))))))))))))))))))))))))))))))))))))))))))))))))))))))))))))))))))))))))))))))))))))))))))))))))))))))))))))))))))))))))))))))))))))))))))))))))))))))))))))))))))))))))))))))))))))))))))))))))))))))))))))))))))))))))))))))))))))))))))))))))))))))))))))))))))))))))))))))))))))))))))))))))))))))))))))))))))))))))))))))))))))))))))))))))))))))))))))))))))))))))))))))))))))))))))))))))))))))))))))))))))))))))))))))))))))))))))))))))))))
)
(check-sat)
